Welcome to the CBC MILP Solver 
Version: 2.10.3 
Build Date: Dec 15 2019 

command line - /home/cdmonsalvea/AI_OR_Workflow/.venv/lib/python3.10/site-packages/pulp/solverdir/cbc/linux/64/cbc /tmp/1d7e9c1332ce47d5a40a767df60c86bd-pulp.mps -sec 3600 -timeMode elapsed -branch -printingOptions all -solution /tmp/1d7e9c1332ce47d5a40a767df60c86bd-pulp.sol (default strategy 1)
At line 2 NAME          MODEL
At line 3 ROWS
At line 65 COLUMNS
At line 2856 RHS
At line 2917 BOUNDS
At line 2948 ENDATA
Problem MODEL has 60 rows, 930 columns and 1830 elements
Coin0008I MODEL read with 0 errors
seconds was changed from 1e+100 to 3600
Option for timeMode changed from cpu to elapsed
Continuous objective value is 2.87091e+07 - 0.00 seconds
Cgl0004I processed model has 60 rows, 930 columns (30 integer (30 of which binary)) and 1830 elements
Cbc0038I Initial state - 30 integers unsatisfied sum - 6.93349
Cbc0038I Pass   1: suminf.    0.10074 (1) obj. 9.17355e+08 iterations 29
Cbc0038I Pass   2: suminf.    0.10074 (1) obj. 9.17355e+08 iterations 0
Cbc0038I Solution found of 9.24473e+08
Cbc0038I Relaxing continuous gives 6.64151e+08
Cbc0038I Before mini branch and bound, 0 integers at bound fixed and 841 continuous
Cbc0038I Full problem 60 rows 930 columns, reduced to 58 rows 85 columns
Cbc0038I Mini branch and bound improved solution from 6.64151e+08 to 1.04325e+08 (0.01 seconds)
Cbc0038I Freeing continuous variables gives a solution of 1.03753e+08
Cbc0038I Round again with cutoff of 9.62485e+07
Cbc0038I Pass   3: suminf.    4.44151 (15) obj. 9.62485e+07 iterations 36
Cbc0038I Pass   4: suminf.    0.77821 (6) obj. 9.62485e+07 iterations 25
Cbc0038I Pass   5: suminf.    0.30636 (2) obj. 9.62485e+07 iterations 15
Cbc0038I Pass   6: suminf.    0.08691 (1) obj. 9.62485e+07 iterations 5
Cbc0038I Pass   7: suminf.    0.08283 (2) obj. 9.62485e+07 iterations 5
Cbc0038I Pass   8: suminf.    0.15975 (1) obj. 9.62485e+07 iterations 6
Cbc0038I Pass   9: suminf.    0.06544 (1) obj. 9.62485e+07 iterations 3
Cbc0038I Pass  10: suminf.    0.23964 (3) obj. 9.62485e+07 iterations 5
Cbc0038I Pass  11: suminf.    0.76730 (2) obj. 9.62485e+07 iterations 9
Cbc0038I Pass  12: suminf.    0.76730 (2) obj. 9.62485e+07 iterations 0
Cbc0038I Pass  13: suminf.    0.85232 (2) obj. 9.62485e+07 iterations 1
Cbc0038I Pass  14: suminf.    0.70027 (2) obj. 9.62485e+07 iterations 1
Cbc0038I Pass  15: suminf.    0.82600 (3) obj. 9.62485e+07 iterations 11
Cbc0038I Pass  16: suminf.    0.66461 (4) obj. 9.62485e+07 iterations 8
Cbc0038I Pass  17: suminf.    0.94243 (3) obj. 9.62485e+07 iterations 7
Cbc0038I Pass  18: suminf.    0.94243 (3) obj. 9.62485e+07 iterations 0
Cbc0038I Pass  19: suminf.    1.36607 (3) obj. 9.62485e+07 iterations 2
Cbc0038I Pass  20: suminf.    1.11599 (3) obj. 9.62485e+07 iterations 1
Cbc0038I Pass  21: suminf.    1.79468 (5) obj. 9.62485e+07 iterations 9
Cbc0038I Pass  22: suminf.    1.01906 (3) obj. 9.62485e+07 iterations 7
Cbc0038I Pass  23: suminf.    1.06501 (3) obj. 9.62485e+07 iterations 2
Cbc0038I Pass  24: suminf.    1.06501 (3) obj. 9.62485e+07 iterations 0
Cbc0038I Pass  25: suminf.    1.36607 (3) obj. 9.62485e+07 iterations 2
Cbc0038I Pass  26: suminf.    1.11599 (3) obj. 9.62485e+07 iterations 1
Cbc0038I Pass  27: suminf.    0.82100 (3) obj. 9.62485e+07 iterations 7
Cbc0038I Pass  28: suminf.    0.96511 (4) obj. 9.62485e+07 iterations 7
Cbc0038I Pass  29: suminf.    1.36607 (3) obj. 9.62485e+07 iterations 3
Cbc0038I Pass  30: suminf.    1.59439 (5) obj. 9.62485e+07 iterations 11
Cbc0038I Pass  31: suminf.    0.82262 (4) obj. 9.62485e+07 iterations 9
Cbc0038I Pass  32: suminf.    1.35577 (6) obj. 9.62485e+07 iterations 8
Cbc0038I Rounding solution of 9.88627e+07 is better than previous of 1.03753e+08

Cbc0038I Before mini branch and bound, 0 integers at bound fixed and 839 continuous
Cbc0038I Full problem 60 rows 930 columns, reduced to 47 rows 76 columns
Cbc0038I Mini branch and bound improved solution from 9.88627e+07 to 9.29595e+07 (0.04 seconds)
Cbc0038I Freeing continuous variables gives a solution of 9.29346e+07
Cbc0038I Round again with cutoff of 8.00895e+07
Cbc0038I Pass  32: suminf.    4.70709 (17) obj. 8.00895e+07 iterations 2
Cbc0038I Pass  33: suminf.    1.33962 (9) obj. 8.00895e+07 iterations 31
Cbc0038I Pass  34: suminf.    2.80475 (9) obj. 8.00895e+07 iterations 20
Cbc0038I Pass  35: suminf.    2.80475 (9) obj. 8.00895e+07 iterations 0
Cbc0038I Pass  36: suminf.    2.93323 (9) obj. 8.00895e+07 iterations 7
Cbc0038I Pass  37: suminf.    2.66508 (9) obj. 8.00895e+07 iterations 2
Cbc0038I Pass  38: suminf.    2.93323 (9) obj. 8.00895e+07 iterations 2
Cbc0038I Pass  39: suminf.    3.17303 (11) obj. 8.00895e+07 iterations 9
Cbc0038I Pass  40: suminf.    3.17303 (11) obj. 8.00895e+07 iterations 0
Cbc0038I Pass  41: suminf.    2.93323 (9) obj. 8.00895e+07 iterations 6
Cbc0038I Pass  42: suminf.    3.06254 (11) obj. 8.00895e+07 iterations 15
Cbc0038I Pass  43: suminf.    3.06254 (11) obj. 8.00895e+07 iterations 0
Cbc0038I Pass  44: suminf.    2.93323 (9) obj. 8.00895e+07 iterations 11
Cbc0038I Pass  45: suminf.    2.66508 (9) obj. 8.00895e+07 iterations 2
Cbc0038I Pass  46: suminf.    2.93323 (9) obj. 8.00895e+07 iterations 2
Cbc0038I Pass  47: suminf.    3.23026 (10) obj. 8.00895e+07 iterations 4
Cbc0038I Pass  48: suminf.    3.23026 (10) obj. 8.00895e+07 iterations 0
Cbc0038I Pass  49: suminf.    2.93323 (9) obj. 8.00895e+07 iterations 3
Cbc0038I Pass  50: suminf.    2.32082 (9) obj. 8.00895e+07 iterations 12
Cbc0038I Pass  51: suminf.    2.93323 (9) obj. 8.00895e+07 iterations 7
Cbc0038I Pass  52: suminf.    2.66508 (9) obj. 8.00895e+07 iterations 2
Cbc0038I Pass  53: suminf.    2.93323 (9) obj. 8.00895e+07 iterations 2
Cbc0038I Pass  54: suminf.    2.32417 (8) obj. 8.00895e+07 iterations 22
Cbc0038I Pass  55: suminf.    1.79093 (9) obj. 8.00895e+07 iterations 17
Cbc0038I Pass  56: suminf.    2.93323 (9) obj. 8.00895e+07 iterations 14
Cbc0038I Pass  57: suminf.    1.99987 (9) obj. 8.00895e+07 iterations 16
Cbc0038I Pass  58: suminf.    2.93323 (9) obj. 8.00895e+07 iterations 9
Cbc0038I Pass  59: suminf.    2.66508 (9) obj. 8.00895e+07 iterations 2
Cbc0038I Pass  60: suminf.    2.93323 (9) obj. 8.00895e+07 iterations 2
Cbc0038I Pass  61: suminf.    2.56985 (9) obj. 8.00895e+07 iterations 11
Cbc0038I No solution found this major pass
Cbc0038I Before mini branch and bound, 0 integers at bound fixed and 848 continuous
Cbc0038I Full problem 60 rows 930 columns, reduced to 39 rows 59 columns
Cbc0038I Mini branch and bound did not improve solution (0.06 seconds)
Cbc0038I After 0.06 seconds - Feasibility pump exiting with objective of 9.29346e+07 - took 0.05 seconds
Cbc0012I Integer solution of 92934647 found by feasibility pump after 0 iterations and 0 nodes (0.06 seconds)
Cbc0031I 33 added rows had average density of 32.727273
Cbc0013I At root node, 33 cuts changed objective from 28709100 to 92900914 in 3 passes
Cbc0014I Cut generator 0 (Probing) - 0 row cuts average 0.0 elements, 0 column cuts (0 active)  in 0.001 seconds - new frequency is -100
Cbc0014I Cut generator 1 (Gomory) - 32 row cuts average 31.9 elements, 0 column cuts (0 active)  in 0.000 seconds - new frequency is 1
Cbc0014I Cut generator 2 (Knapsack) - 0 row cuts average 0.0 elements, 0 column cuts (0 active)  in 0.000 seconds - new frequency is -100
Cbc0014I Cut generator 3 (Clique) - 0 row cuts average 0.0 elements, 0 column cuts (0 active)  in 0.000 seconds - new frequency is -100
Cbc0014I Cut generator 4 (MixedIntegerRounding2) - 0 row cuts average 0.0 elements, 0 column cuts (0 active)  in 0.000 seconds - new frequency is -100
Cbc0014I Cut generator 5 (FlowCover) - 0 row cuts average 0.0 elements, 0 column cuts (0 active)  in 0.000 seconds - new frequency is -100
Cbc0014I Cut generator 6 (TwoMirCuts) - 34 row cuts average 33.5 elements, 0 column cuts (0 active)  in 0.001 seconds - new frequency is 1
Cbc0001I Search completed - best objective 92934646.93536057, took 34 iterations and 0 nodes (0.07 seconds)
Cbc0032I Strong branching done 4 times (4 iterations), fathomed 1 nodes and fixed 0 variables
Cbc0035I Maximum depth 0, 0 variables fixed on reduced cost
Cuts at root node changed objective from 2.87091e+07 to 9.43305e+07
Probing was tried 3 times and created 0 cuts of which 0 were active after adding rounds of cuts (0.001 seconds)
Gomory was tried 3 times and created 32 cuts of which 0 were active after adding rounds of cuts (0.000 seconds)
Knapsack was tried 3 times and created 0 cuts of which 0 were active after adding rounds of cuts (0.000 seconds)
Clique was tried 3 times and created 0 cuts of which 0 were active after adding rounds of cuts (0.000 seconds)
MixedIntegerRounding2 was tried 3 times and created 0 cuts of which 0 were active after adding rounds of cuts (0.000 seconds)
FlowCover was tried 3 times and created 0 cuts of which 0 were active after adding rounds of cuts (0.000 seconds)
TwoMirCuts was tried 3 times and created 34 cuts of which 0 were active after adding rounds of cuts (0.001 seconds)
ZeroHalf was tried 1 times and created 0 cuts of which 0 were active after adding rounds of cuts (0.000 seconds)

Result - Optimal solution found

Objective value:                92934646.93536057
Enumerated nodes:               0
Total iterations:               34
Time (CPU seconds):             0.07
Time (Wallclock seconds):       0.07

Option for printingOptions changed from normal to all
Total time (CPU seconds):       0.08   (Wallclock seconds):       0.08

